nApps = 230
nRes = 9
nActs = 470
nNetworks = 6

assignmentToResources = [2,2,3,2,1,1,3,3,2,3,3,2,2,1,1,1,3,1,3,3,1,2,1,1,1,1,2,1,3,2,2,1,1,3,2,3,2,2,2,3,2,1,3,3,3,1,3,3,2,3,1,1,3,1,2,2,2,1,2,3,3,2,1,1,2,1,3,2,1,2,3,3,1,1,2,3,3,1,1,2,1,3,1,1,3,1,3,2,2,1,2,2,1,2,2,1,2,2,2,1,5,5,5,5,5,6,6,6,6,5,4,4,4,4,4,6,6,6,5,5,6,6,5,5,5,5,4,4,4,4,4,6,6,6,6,4,4,6,6,6,6,6,5,5,4,4,4,4,4,4,4,4,4,4,5,4,6,6,6,4,4,4,6,6,5,6,6,5,5,5,5,5,5,5,5,6,6,6,6,6,6,6,6,6,4,4,6,6,6,6,6,5,5,6,6,4,4,4,4,4,6,6,6,6,4,5,5,5,5,5,4,4,5,6,5,5,4,4,4,5,4,4,6,6,6,5,4,6,6,6,6,6,4,5,5,6,6,4,5,4,4,6,6,6,6,4,4,4,6,4,5,5,5,5,5,4,4,5,5,5,4,8,5,9,6,8,4,9,5,7,4,9,4,9,5,7,6,8,6,8,5,7,6,7,5,7,6,8,6,7,5,9,6,8,5,7,4,8,6,8,5,9,6,8,5,9,4,9,6,8,7,9,7,7,9,7,7,8,7,9,9,8,8,9,9,7,7,7,7,9,7,7,9,7,9,9,8,8,8,9,8,8,7,8,8,8,9,7,8,7,7,7,7,9,8,9,9,9,8,8,8,8,8,8,7,9,7,7,8,9,8,8,8,8,7,7,7,7,9,9,7,9,7,9,9,7,7,7,7,8,8,8,7,8,8,9,8,7,7,7,8,9,7,8,7,8,8,9,9,8,8,7,7,8,9,7,9,9,9,9,8,8,9,7,7,7,8,8,8,7,9,9,8,7,7,7,8,8,7,7,7,8,8,7,7,7,7,8,7,8,8,8,8,8,8,8,8,8,8,8,9,7,9,7,7,9,9,7,7,9];

processingTimes = [128,112,96,112,152,72,136,104,136,128,96,40,120,136,80,128,112,128,128,72,136,120,104,80,152,72,104,64,136,136,64,136,120,160,128,104,112,112,72,48,104,120,128,112,152,136,64,128,120,96,144,64,152,104,120,136,112,128,120,136,120,104,104,120,112,120,144,120,168,104,128,128,96,128,152,48,96,128,160,120,128,112,48,120,72,168,128,56,56,64,96,96,128,120,128,96,80,104,136,144,3,4,4,500,3,500,3,500,3,4,500,8,4,100,4,3,500,3,4,3,4,100,500,4,4,4,3,3,3,3,500,4,4,3,4,4,3,4,4,500,500,3,4,500,4,4,3,4,3,3,500,3,3,500,4,8,3,4,4,3,3,3,500,500,4,3,500,4,4,4,3,5,5,4,8,3,4,4,4,4,4,3,4,3,5,4,3,500,4,500,3,4,13,3,500,3,6,3,4,4,5,5,3,3,500,4,3,3,13,500,8,8,8,3,3,3,500,3,3,3,3,3,4,500,500,3,4,5,500,3,4,4,3,500,3,4,4,500,3,4,4,100,3,100,4,8,8,500,3,4,4,200,5,5,3,3,3,3,4,4,8,8,4,4,4,4,4,4,5,5,3,3,3,3,4,4,8,8,5,5,4,4,10,10,3,3,3,3,4,4,3,3,3,3,3,3,4,4,3,3,500,500,500,500,500,500,4,4,4,4,3,4,4,500,3,500,3,500,3,4,500,8,4,100,4,3,500,3,4,3,4,100,500,4,4,4,3,3,3,3,500,4,4,3,4,4,3,4,4,500,500,3,4,500,4,4,3,4,3,3,500,3,3,500,4,8,3,4,4,3,3,3,500,500,4,3,500,4,4,4,3,5,5,4,8,3,4,4,4,4,4,3,4,3,5,4,3,500,4,500,3,4,13,3,500,3,6,3,4,4,5,5,3,3,500,4,3,3,13,500,8,8,8,3,3,3,500,3,3,3,3,3,4,500,500,3,4,5,500,3,4,4,3,500,3,4,4,500,3,4,4,100,3,100,4,8,8,500,3,4,4,200,5,5,3,3,3,3,4,4];

periods = [50000,100000,10000,10000,20000,1000,20000,10000,20000,20000,1000,10000,1000,100000,20000,5000,20000,20000,10000,10000,100000,10000,100000,10000,10000,20000,20000,20000,20000,10000,20000,100000,5000,10000,100000,100000,50000,100000,10000,10000,5000,20000,100000,20000,20000,20000,100000,20000,100000,10000,100000,10000,10000,100000,100000,10000,20000,20000,100000,100000,10000,20000,20000,10000,20000,20000,20000,20000,100000,20000,100000,100000,100000,100000,10000,10000,10000,10000,10000,20000,20000,1000,100000,10000,10000,10000,10000,10000,2000,2000,20000,10000,20000,100000,10000,20000,100000,100000,20000,20000,50000,100000,100000,100000,100000,10000,10000,10000,10000,10000,20000,20000,1000,1000,1000,20000,20000,10000,20000,20000,20000,1000,10000,10000,10000,1000,100000,100000,100000,100000,5000,20000,20000,20000,20000,20000,20000,10000,10000,10000,10000,10000,10000,10000,100000,100000,10000,10000,10000,20000,20000,20000,20000,20000,20000,20000,20000,20000,20000,100000,100000,5000,10000,10000,100000,100000,100000,50000,100000,100000,100000,10000,10000,10000,10000,10000,100000,100000,100000,20000,20000,20000,20000,20000,20000,20000,100000,100000,20000,20000,20000,100000,100000,10000,10000,100000,100000,10000,10000,10000,10000,10000,10000,10000,100000,100000,100000,100000,10000,20000,20000,20000,100000,10000,20000,20000,20000,20000,20000,20000,20000,20000,20000,20000,20000,20000,100000,100000,100000,100000,100000,100000,100000,10000,10000,10000,10000,10000,20000,20000,20000,1000,1000,1000,1000,100000,100000,100000,10000,10000,2000,2000,10000,10000,10000,20000,20000,20000,20000,20000,20000,20000,20000,20000,20000,20000,10000,10000,10000,10000,10000,10000,10000,10000,10000,10000,10000,10000,10000,10000,10000,10000,10000,10000,10000,10000,10000,10000,10000,10000,20000,20000,20000,20000,20000,20000,20000,20000,100000,100000,100000,100000,100000,100000,100000,100000,10000,10000,10000,10000,50000,100000,100000,100000,100000,10000,10000,10000,10000,10000,20000,20000,1000,1000,1000,20000,20000,10000,20000,20000,20000,1000,10000,10000,10000,1000,100000,100000,100000,100000,5000,20000,20000,20000,20000,20000,20000,10000,10000,10000,10000,10000,10000,10000,100000,100000,10000,10000,10000,20000,20000,20000,20000,20000,20000,20000,20000,20000,20000,100000,100000,5000,10000,10000,100000,100000,100000,50000,100000,100000,100000,10000,10000,10000,10000,10000,100000,100000,100000,20000,20000,20000,20000,20000,20000,20000,100000,100000,20000,20000,20000,100000,100000,10000,10000,100000,100000,10000,10000,10000,10000,10000,10000,10000,100000,100000,100000,100000,10000,20000,20000,20000,100000,10000,20000,20000,20000,20000,20000,20000,20000,20000,20000,20000,20000,20000,100000,100000,100000,100000,100000,100000,100000,10000,10000,10000,10000,10000,20000,20000,20000,1000,1000,1000,1000,100000,100000,100000,10000,10000,2000,2000,10000,10000,10000,20000,20000,20000,20000,20000];

assignmentToClusters = [1,2,3,4,5,6,7,8,9,10,11,12,13,14,15,16,5,17,8,18,19,8,20,8,8,21,10,22,23,8,10,24,25,26,27,28,29,30,8,31,32,33,34,35,10,36,37,38,39,8,40,8,41,42,39,8,5,43,44,30,8,45,46,8,47,48,49,50,51,22,39,27,52,53,54,55,56,8,56,5,57,58,59,60,8,8,8,56,61,62,63,64,65,66,8,67,68,69,70,22,71,72,73,74,75,76,77,78,79,80,81,82,83,84,85,86,87,88,89,90,91,92,93,94,95,96,97,98,99,100,101,102,103,104,105,106,107,108,109,110,111,112,113,114,115,116,117,118,119,120,121,122,123,124,125,126,127,128,129,130,131,132,133,134,135,136,137,138,139,140,141,142,143,144,145,146,147,148,149,150,151,152,153,154,155,156,157,158,159,160,161,162,163,164,165,166,167,168,169,170,171,172,173,174,175,176,177,178,179,180,181,182,183,184,185,186,187,188,189,190,191,192,193,194,195,196,197,198,199,200,201,202,203,204,205,206,207,208,209,210,211,212,213,214,215,216,217,218,219,220,221,222,223,224,225,226,227,228,229,230,5,5,5,5,5,5,8,8,8,8,8,8,8,8,8,8,8,8,8,8,8,8,8,8,8,8,8,8,8,8,10,10,10,10,22,22,22,22,27,27,30,30,39,39,39,39,56,56,56,56,71,72,73,74,75,76,77,78,79,80,81,82,83,84,85,86,87,88,89,90,91,92,93,94,95,96,97,98,99,100,101,102,103,104,105,106,107,108,109,110,111,112,113,114,115,116,117,118,119,120,121,122,123,124,125,126,127,128,129,130,131,132,133,134,135,136,137,138,139,140,141,142,143,144,145,146,147,148,149,150,151,152,153,154,155,156,157,158,159,160,161,162,163,164,165,166,167,168,169,170,171,172,173,174,175,176,177,178,179,180,181,182,183,184,185,186,187,188,189,190,191,192,193,194,195,196,197,198,199,200,201,202,203,204,205,206,207,208,209,210,211,212,213,214,215,216,217,218,219,220,221,222,223,224,225,226,227,228,229,230];

precedenceAdjList = [[],[],[],[],[],[],[],[267],[],[291],[],[],[],[],[],[],[263],[],[84,271,273],[],[],[287],[],[275],[289],[],[293],[295],[],[277,279],[26],[],[],[],[299],[],[],[],[],[],[],[],[],[],[],[],[],[],[303],[],[],[],[],[],[],[],[261],[],[],[301],[],[],[],[281,283],[],[],[],[],[],[297],[305],[],[],[],[],[],[307],[285],[],[265],[],[],[],[],[7],[269],[18],[309],[],[],[],[],[],[],[29],[],[],[],[],[],[],[],[],[],[],[],[],[],[],[],[],[],[],[],[],[],[],[],[],[],[],[],[],[],[],[],[],[],[],[],[],[],[],[],[],[],[],[],[],[],[],[],[],[],[],[],[],[],[],[],[],[],[],[],[],[],[],[],[],[],[],[],[],[],[],[],[],[],[],[],[],[],[],[],[],[],[],[],[],[],[],[],[],[],[],[],[],[],[],[],[],[],[],[],[],[],[],[],[],[],[],[],[],[],[],[],[],[],[],[],[],[],[],[],[],[],[],[],[],[],[],[],[],[],[],[],[],[],[],[],[],[],[],[],[],[],[],[],[],[],[],[],[],[],[],[],[],[],[],[],[],[],[],[],[],[],[],[],[],[],[4],[260],[56],[262],[16],[264],[85],[266],[55],[268],[23],[270],[51],[272],[38],[274],[18],[276],[49],[278],[29],[280],[60],[282],[94],[284],[84],[286],[7],[288],[30],[290],[44],[292],[69],[294],[99],[296],[71],[298],[37],[300],[70],[302],[54],[304],[78],[306],[76],[308],[100],[101],[102],[103],[104],[105],[106],[107],[108],[109],[110],[111],[112],[113],[114],[115],[116],[117],[118],[119],[120],[121],[122],[123],[124],[125],[126],[127],[128],[129],[130],[131],[132],[133],[134],[135],[136],[137],[138],[139],[140],[141],[142],[143],[144],[145],[146],[147],[148],[149],[150],[151],[152],[153],[154],[155],[156],[157],[158],[159],[160],[161],[162],[163],[164],[165],[166],[167],[168],[169],[170],[171],[172],[173],[174],[175],[176],[177],[178],[179],[180],[181],[182],[183],[184],[185],[186],[187],[188],[189],[190],[191],[192],[193],[194],[195],[196],[197],[198],[199],[200],[201],[202],[203],[204],[205],[206],[207],[208],[209],[210],[211],[212],[213],[214],[215],[216],[217],[218],[219],[220],[221],[222],[223],[224],[225],[226],[227],[228],[229],[230],[231],[232],[233],[234],[235],[236],[237],[238],[239],[240],[241],[242],[243],[244],[245],[246],[247],[248],[249],[250],[251],[252],[253],[254],[255],[256],[257],[258],[259]];